%SETS
JOBS     = 1..2;
MACHINES = 1..12;
SPEED    = 1;

time               = array3d(JOBS,MACHINES,1..SPEED,[61, 93, 16, 17, 11, 84, 80, 88, 98, 81, 51, 80, 20, 67, 22, 95, 56, 47, 33, 79, 51, 61, 11, 65]);
energy             = array3d(JOBS,MACHINES,1..SPEED,[54, 39, 85, 84, 89, 43, 44, 41, 37, 44, 60, 44, 81, 51, 80, 38, 57, 62, 71, 45, 60, 54, 89, 52]);
precedence         = array2d(JOBS,MACHINES,[2,8,4,0,9,1,11,7,10,6,5,3,3,11,5,8,0,2,7,10,6,9,4,1]);